25
5 -1 6769 3
2 1 7748 5
-1 4 3318 4
6 -2 7723 2
5 -4 4751 4
-3 2 7778 3
-6 5 9363 1
3 6 7025 8
-1 6 7132 9
0 4 1086 6
4 5 4584 2
0 2 6555 7
-1 -2 9314 4
-5 1 3221 0
-6 -2 8594 6
1 -3 9554 7
-4 4 4476 10
1 0 5962 6
0 2 5871 9
-5 2 3625 5
6 -6 5237 4
-6 -1 3594 4
6 -5 6631 7
-5 4 529 9
-4 1 1251 1
